(declare-const X String)
; Hello\x2E\s+ovpl\s+Host\x3AWeHost\x3awww\x2Ewowokay\x2Ecom/wowokaybar\x2Ephp
(assert (str.in_re X (re.++ (str.to_re "Hello.") (re.+ (re.union (str.to_re " ") (str.to_re "\u{9}") (str.to_re "\u{a}") (str.to_re "\u{c}") (str.to_re "\u{d}"))) (str.to_re "ovpl") (re.+ (re.union (str.to_re " ") (str.to_re "\u{9}") (str.to_re "\u{a}") (str.to_re "\u{c}") (str.to_re "\u{d}"))) (str.to_re "Host:WeHost:www.wowokay.com/wowokaybar.php\u{a}"))))
; /filename=[^\n]*\x2ejfi/i
(assert (not (str.in_re X (re.++ (str.to_re "/filename=") (re.* (re.comp (str.to_re "\u{a}"))) (str.to_re ".jfi/i\u{a}")))))
; whenu\x2Ecom\d+Agent\stoWebupdate\.cgithisHost\x3aconnection
(assert (not (str.in_re X (re.++ (str.to_re "whenu.com\u{1b}") (re.+ (re.range "0" "9")) (str.to_re "Agent") (re.union (str.to_re " ") (str.to_re "\u{9}") (str.to_re "\u{a}") (str.to_re "\u{c}") (str.to_re "\u{d}")) (str.to_re "toWebupdate.cgithisHost:connection\u{a}")))))
; /\x253D$/Im
(assert (str.in_re X (str.to_re "/%3D/Im\u{a}")))
(check-sat)
